experiments/21_JSA_experiments/solutions/scalability/imx8a/IN_20_10.json-ILP-IDLE-MAX.out.log
Using license file /home/benedond/gurobi.lic
Using gurobi.env file
Set parameter Threads to value 1
Academic license - for non-commercial use only
Changed value of parameter TimeLimit to 300.0
   Prev: inf  Min: 0.0  Max: inf  Default: inf
Gurobi Optimizer version 9.0.1 build v9.0.1rc0 (linux64)
Optimize a model with 880 rows, 820 columns and 3258 nonzeros
Model fingerprint: 0x85a6db61
Variable types: 20 continuous, 800 integer (800 binary)
Coefficient statistics:
  Matrix range     [1e+00, 4e+02]
  Objective range  [4e+01, 4e+02]
  Bounds range     [1e+00, 1e+00]
  RHS range        [1e+00, 9e+02]
Presolve removed 554 rows and 532 columns
Presolve time: 0.21s
Presolved: 326 rows, 288 columns, 2225 nonzeros
Variable types: 19 continuous, 269 integer (269 binary)

Root relaxation: objective 3.466000e+03, 143 iterations, 0.00 seconds

    Nodes    |    Current Node    |     Objective Bounds      |     Work
 Expl Unexpl |  Obj  Depth IntInf | Incumbent    BestBd   Gap | It/Node Time

     0     0 3466.00000    0   12          - 3466.00000      -     -    0s
H    0     0                    3113.0000000 3466.00000  11.3%     -    0s
H    0     0                    3266.0000000 3466.00000  6.12%     -    0s
     0     0 3466.00000    0   22 3266.00000 3466.00000  6.12%     -    0s
H    0     0                    3302.0000000 3466.00000  4.97%     -    0s
     0     0 3466.00000    0    7 3302.00000 3466.00000  4.97%     -    0s
H    0     0                    3394.0000000 3466.00000  2.12%     -    0s
     0     0 3466.00000    0   17 3394.00000 3466.00000  2.12%     -    0s
     0     0 3466.00000    0   16 3394.00000 3466.00000  2.12%     -    0s
     0     0 3466.00000    0   18 3394.00000 3466.00000  2.12%     -    0s
     0     0 3466.00000    0   18 3394.00000 3466.00000  2.12%     -    0s
     0     0 3466.00000    0   15 3394.00000 3466.00000  2.12%     -    0s
     0     0 3466.00000    0   15 3394.00000 3466.00000  2.12%     -    0s
     0     0 3466.00000    0   11 3394.00000 3466.00000  2.12%     -    0s
     0     0 3466.00000    0   18 3394.00000 3466.00000  2.12%     -    0s
     0     0 3466.00000    0   24 3394.00000 3466.00000  2.12%     -    0s
     0     0 3466.00000    0   24 3394.00000 3466.00000  2.12%     -    0s
     0     0 3466.00000    0   21 3394.00000 3466.00000  2.12%     -    0s
     0     0 3466.00000    0   21 3394.00000 3466.00000  2.12%     -    0s
     0     0 3466.00000    0   17 3394.00000 3466.00000  2.12%     -    0s
     0     0 3466.00000    0   25 3394.00000 3466.00000  2.12%     -    0s
     0     0 3466.00000    0   18 3394.00000 3466.00000  2.12%     -    0s
     0     0 3466.00000    0   18 3394.00000 3466.00000  2.12%     -    0s
     0     0 3466.00000    0   18 3394.00000 3466.00000  2.12%     -    0s
     0     0 3466.00000    0   18 3394.00000 3466.00000  2.12%     -    0s
     0     2 3466.00000    0   11 3394.00000 3466.00000  2.12%     -    0s
H  200    14                    3429.0000000 3466.00000  1.08%   8.9    0s
H  576    45                    3431.0000000 3466.00000  1.02%   9.5    0s
H  688     3                    3466.0000000 3466.00000  0.00%   9.6    0s

Cutting planes:
  Cover: 148
  MIR: 51
  GUB cover: 2
  Relax-and-lift: 13

Explored 689 nodes (10069 simplex iterations) in 0.86 seconds
Thread count was 1 (of 4 available processors)

Solution count 7: 3466 3431 3429 ... 3113

Optimal solution found (tolerance 1.00e-04)
Best objective 3.466000000000e+03, best bound 3.466000000000e+03, gap 0.0000%
